\ Model firm
\ LP format - for model browsing. Use MPS format to capture full model detail.
Maximize
  23.02947197008906 output - 5 emission + [ - 0.7488135039273247 output ^2
   + 1.09762700785465 output * emission - 0.5488135039273248 emission ^2
   ] / 2 
Subject To
 R0: - output + emission <= 0
Bounds
End
